file/Cnf.in
p cnf 25 23                                       
-6 -8 0
-12 -14 0
-17 -18 0
-21 -22 0
-21 -24 0
-22 -24 0
-12 -22 0
-14 -24 0
17 12 0
18 17 0
22 17 0
22 21 0
8 12 18 14 0
8 14 18 12 0
12 8 14 18 0
12 18 14 8 0
14 8 12 18 0
14 18 12 8 0
18 12 8 14 0
18 14 8 12 0
6 12 18 22 0
6 12 18 24 0
22 18 24 0
