file/Cnf.out
SAT
6 -8 -12 14 17 -18 -21 22 -24 